1015.64
0 122 160 117 105 16 51 6 57 95 48 173 68 157 80 2 148 162 138 119 22 115 163 13 114 165 35 12 27 152 111 130 25 97 81 73 96 1 41 141 120 140 90 76 172 93 107 17 77 43 131 45 159 58 158 84 133 92 118 46 63 132 65 21 14 83 147 53 113 39 7 100 150 139 4 161 26 69 29 144 62 85 38 33 86 91 5 174 75 20 127 143 142 134 9 3 136 151 129 103 137 124 112 47 11 74 54 154 145 126 125 50 108 72 24 121 30 34 170 55 109 67 64 149 15 167 52 106 116 18 171 99 8 123 31 104 66 87 71 166 164 135 61 49 82 168 156 110 169 155 60 42 78 36 146 37 89 56 153 98 40 32 23 128 44 102 94 28 101 10 70 19 59 79 88
